30
2
20174
614 241
true
0.25
23 38 17 10 50 18 15 6 36 9 48 5 50 47 46 34 45 12 40 44 41 39 27 14 35 20 28 50 20 35
9 31 10 15 14 28 27 43 7 18 32 37 11 30 47 2 12 16 30 19 18 24 8 8 15 43 28 15 16 18
0 16 -68 -45 73 17 58 -78 63 52 -34 5 -32 84 -92 -19 -92 81 -55 -46 -3 64 -21 4 89 -52 29 -39 -44 63
0 0 0 0 0 -64 0 0 0 0 0 0 0 0 0 0 0 0 0 0 0 0 0 0 0 0 0 0 0 -81
0 0 71 0 0 94 0 0 0 0 0 0 5 0 59 0 -70 -28 0 0 0 0 4 0 0 -45 0 0 0
0 0 95 -75 0 0 0 0 0 0 0 0 14 0 -89 0 87 94 0 0 -81 0 0 96 0 0 0 0
0 0 58 0 -71 0 -44 0 -2 0 0 0 -100 0 0 0 0 0 0 0 0 65 0 0 0 14 0
0 0 0 0 0 0 80 0 -12 0 0 0 0 0 0 0 0 0 0 0 -28 64 0 0 0 0
0 25 88 0 0 -56 0 0 0 0 0 0 0 -65 0 92 0 -100 0 0 0 0 0 44 18
0 0 0 0 0 0 0 76 -48 0 62 0 0 80 80 0 0 0 0 0 0 0 -45 0
0 0 0 12 0 0 0 -95 38 0 0 0 0 0 0 0 0 0 -85 40 0 -71 0
0 0 46 0 0 0 0 0 0 0 0 0 0 0 0 0 -64 16 0 0 -30 0
0 0 0 0 0 0 0 0 0 -15 0 0 24 96 0 24 0 0 -74 0 0
0 -61 0 0 0 0 55 0 0 0 0 0 0 0 0 20 0 0 -21 0
0 0 0 0 0 0 -89 0 -71 0 -91 0 0 0 0 -24 0 0 0
0 0 0 -77 0 0 -1 0 0 0 0 0 0 0 0 0 -61 0
0 0 0 0 0 0 0 64 0 0 0 0 -1 -81 0 64 0
0 -44 0 -21 0 0 74 0 0 53 -56 0 17 0 0 0
0 0 0 -5 0 0 0 -67 0 0 -36 0 0 0 0
0 0 0 13 -5 81 60 0 58 0 0 0 -93 0
0 0 0 0 -65 0 0 0 -52 0 0 0 0
0 0 0 0 0 -69 0 0 0 -32 0 0
0 57 -20 0 0 53 -19 0 -63 0 0
0 0 -97 0 -8 0 0 56 26 -86
0 0 0 0 0 0 0 0 13
0 0 24 31 0 0 0 -35
0 -16 0 0 -100 -95 0
0 0 0 0 0 0
0 0 0 14 0
0 0 53 0
0 0 0
0 0
0 0 0 0 0 0 -55 -74 0 55 -48 94 0 0 0 0 0 0 96 -52 0 30 0 0 0 0 -15 -85 0
0 0 1 0 0 0 0 -56 0 0 -75 99 0 0 0 -60 0 0 0 -31 0 0 0 0 -58 0 39 62
0 0 0 0 0 0 67 0 0 0 0 0 100 0 0 45 0 0 0 84 0 0 0 0 0 0 0
0 0 0 0 0 -9 0 0 -4 -34 0 0 82 0 0 0 0 75 0 0 0 0 0 0 0 0
0 0 0 0 0 0 0 0 0 0 0 0 0 0 0 0 0 -51 0 0 0 0 74 0 0
0 -27 0 0 69 0 0 -87 0 -17 0 0 68 0 0 0 0 0 0 -50 0 0 83 0
0 0 0 0 -24 0 -16 0 0 0 56 0 59 0 0 0 -55 0 0 0 0 25 0
0 0 0 0 0 0 0 27 0 0 0 0 5 -29 0 0 0 0 -80 0 0 0
0 0 0 86 0 0 61 0 0 0 0 0 0 -71 0 0 0 0 0 0 0
0 0 -35 0 -16 -47 0 18 0 -92 0 -97 0 0 0 79 0 0 -37 87
0 0 0 0 0 0 0 52 0 0 -78 0 0 0 -60 0 0 0 0
0 -45 0 0 0 0 0 0 28 25 86 -34 0 0 0 0 0 0
0 0 0 0 0 0 0 0 0 0 0 0 0 -83 0 0 0
0 0 0 0 0 0 0 0 0 0 0 -9 0 0 0 0
0 0 0 0 -12 0 0 -13 0 -61 0 0 -37 -77 88
0 0 0 0 0 0 0 94 0 0 31 0 0 0
0 0 0 0 0 0 0 43 0 0 0 63 0
0 0 0 0 0 0 -40 41 0 0 0 0
0 0 0 0 23 0 0 0 0 0 0
0 0 0 0 0 0 0 49 0 0
0 20 0 11 52 16 0 0 0
0 0 0 0 0 -53 0 0
0 0 21 0 0 0 0
0 0 0 0 0 4
0 0 0 -86 0
0 0 0 0
0 0 0
0 0
0
0 0 19 0 0 0 0 0 0 0 0 0 0 0 0 0 -19 0 -90 0 26 0 0 24 0 0 0 0
0 0 72 0 0 0 0 0 0 29 0 0 -41 0 0 0 0 0 0 0 0 0 0 0 0 0 22
0 0 0 0 0 0 0 0 0 0 0 0 0 61 0 0 0 0 0 0 -35 0 -76 0 0 0
0 68 0 -1 0 0 0 0 -17 0 0 0 0 0 0 0 -4 0 0 0 0 0 0 0 0
0 0 -94 0 2 0 0 0 0 0 -71 0 0 41 0 -5 -4 25 -64 0 0 0 0 0
0 0 0 0 -41 0 0 -41 0 0 0 0 0 0 0 0 0 0 0 0 0 0 0
0 0 0 0 0 -37 0 0 92 0 0 0 0 0 0 0 -8 0 0 -17 49 0
0 0 0 0 43 0 0 0 0 0 0 0 0 0 0 0 -52 0 0 0 0
0 0 66 97 0 41 0 0 0 0 52 0 0 0 61 0 -32 0 0 0
0 0 0 0 0 0 0 0 0 43 0 0 0 0 17 0 0 0 22
0 0 0 0 60 0 0 -79 0 0 0 0 0 0 0 0 0 0
0 0 0 0 0 0 0 0 -83 0 0 0 0 0 0 0 0
0 0 0 0 0 0 22 -79 0 0 0 0 0 0 0 0
0 0 0 20 0 4 0 0 0 0 -51 -83 -22 0 -34
0 0 0 0 0 0 0 0 0 0 0 0 0 0
0 0 0 0 0 0 -91 -49 0 0 86 0 0
0 0 0 49 0 0 0 0 0 -81 33 0
0 0 0 0 0 -62 0 0 0 0 5
0 0 0 0 0 -8 0 0 0 0
0 0 0 67 0 0 0 -73 11
0 0 0 0 0 0 0 0
0 0 0 -66 -54 -42 0
0 0 0 0 0 0
0 0 0 0 0
0 93 0 0
0 51 0
0 0
0
0 0 0 0 90 0 0 -54 0 0 13 0 0 0 0 98 0 0 0 0 -90 -91 0 -91 -46 0 0
0 0 0 0 5 -36 0 0 0 0 0 0 0 0 0 33 0 0 0 0 0 0 67 -36 0 0
0 0 27 0 49 0 0 -7 50 0 0 0 0 0 90 0 59 0 0 -82 29 100 0 -10 0
0 57 69 0 63 0 0 -21 0 5 0 0 0 0 -79 -51 0 0 0 0 0 0 0 0
0 0 0 0 0 0 -40 100 4 0 -82 94 0 0 0 0 0 0 0 0 90 0 0
0 0 85 0 -89 0 0 -56 0 0 93 31 -33 0 0 0 -49 0 0 0 0 0
0 0 0 0 0 0 0 -32 0 0 0 -12 0 0 -83 0 0 0 0 0 -68
0 55 0 0 0 0 0 55 0 0 65 0 0 0 0 0 0 0 0 -15
0 0 0 0 0 0 -93 0 0 0 0 0 0 0 0 -87 0 0 0
0 0 0 0 0 0 0 0 0 -41 0 0 83 0 0 0 0 0
0 0 26 0 0 0 42 0 -72 0 80 0 0 0 0 0 0
0 0 0 0 -25 0 0 0 0 0 23 0 89 0 94 -34
0 68 -75 -76 -13 -15 0 0 0 86 0 0 0 0 0
0 0 0 0 0 0 0 0 0 0 0 0 0 0
0 0 0 0 0 0 0 0 -33 0 0 0 0
0 20 0 0 0 0 0 0 0 98 0 0
0 0 0 0 0 0 0 94 0 -78 -89
0 -13 0 5 0 0 0 -20 0 0
0 0 -72 69 0 57 0 0 0
0 15 0 99 0 0 0 0
0 0 -18 0 0 0 -70
0 0 0 0 0 0
0 0 0 0 0
0 -4 0 88
0 0 0
0 0
0
0 -69 0 0 0 0 -31 0 0 -72 0 -4 0 -28 83 0 0 0 0 0 -47 0 0 0 -83 0
0 31 0 0 0 54 0 0 0 87 0 0 0 0 0 0 0 0 6 0 0 0 0 0 -50
0 4 0 0 0 0 0 -17 0 0 0 -25 0 -25 0 23 -41 -58 0 0 0 -20 0 0
0 0 43 0 0 29 91 0 -34 49 0 0 0 0 0 0 0 0 0 0 -99 -72 0
0 0 0 -20 0 0 0 0 0 0 -35 36 49 0 -11 0 0 0 0 0 0 0
0 0 0 0 0 -99 0 0 -97 0 -70 0 0 -8 0 0 0 0 0 0 -67
0 0 35 0 -27 0 0 -92 0 0 0 0 0 0 0 0 -48 0 0 0
0 0 0 0 22 0 0 0 0 0 0 -98 0 1 0 67 0 -57 0
0 0 0 0 0 0 0 0 50 52 0 0 0 0 0 -93 0 0
0 -76 0 -52 -53 0 0 0 0 0 0 25 2 0 0 0 0
0 0 0 0 0 0 0 0 -26 99 0 0 0 0 0 0
0 26 -81 0 12 0 0 93 0 74 38 40 -27 0 0
0 -52 -9 0 0 0 0 0 0 0 0 48 29 0
0 0 0 0 0 0 0 0 0 0 0 83 0
0 -98 0 0 0 0 94 0 0 0 0 53
0 0 0 0 0 69 0 0 0 0 0
0 94 0 0 0 0 0 84 0 -65
0 0 0 0 0 0 57 -28 0
0 0 0 -17 0 0 0 0
0 0 0 -34 0 0 0
0 0 0 0 0 0
0 0 0 0 0
0 0 0 0
0 0 -98
0 0
0
0 0 0 0 0 0 0 0 0 0 0 0 0 32 0 0 0 0 0 0 0 -21 0 0 0
0 0 0 0 62 -75 -39 0 -27 0 35 65 0 -13 0 -88 -13 -5 -73 8 0 0 0 0
0 0 64 0 0 0 -3 0 0 0 -88 0 0 0 97 0 0 0 0 83 0 0 0
0 4 0 0 0 0 -48 0 0 26 0 91 0 0 0 0 0 0 0 0 0 0
0 0 0 0 0 0 66 0 0 37 49 0 -28 -7 -73 0 95 0 0 0 0
0 0 46 0 0 0 0 -97 0 0 0 0 0 0 0 0 0 0 0 0
0 0 0 0 -28 0 39 0 0 0 0 0 30 0 45 39 0 0 0
0 75 0 0 0 -60 0 0 0 -43 0 0 0 0 -70 0 0 0
0 0 -54 0 0 0 0 0 0 0 0 0 0 14 0 0 0
0 0 0 0 0 -73 -47 0 0 0 0 -51 0 0 9 0
0 -49 -78 0 0 0 83 94 0 -91 0 0 0 0 0
0 0 -94 0 0 0 0 0 0 76 44 0 0 36
0 0 0 0 0 0 0 0 0 0 0 -84 0
0 0 0 0 6 0 0 25 0 0 0 0
0 0 0 0 0 0 -58 0 0 0 0
0 47 0 0 0 92 -42 1 0 0
0 0 -77 60 0 0 0 0 0
0 0 0 42 0 90 0 0
0 0 0 0 0 0 0
0 0 0 0 0 0
0 0 0 0 -9
0 0 0 0
0 0 0
0 0
0
0 0 0 56 0 0 0 0 -45 0 0 -22 0 0 42 0 0 0 0 79 -79 100 55 0
0 0 0 0 0 -50 -75 0 -11 -5 0 0 0 0 0 0 0 0 0 0 0 0 0
0 0 8 -31 0 0 0 0 0 -44 8 0 0 0 0 0 0 -83 62 0 0 0
0 44 0 0 0 0 0 0 -62 0 0 67 -73 18 0 0 0 -49 0 0 -23
0 0 0 0 0 97 0 -10 0 0 0 0 0 0 0 -9 -35 0 10 -46
0 0 0 -90 0 0 0 0 0 -39 0 0 0 0 0 0 0 0 0
0 -29 0 0 0 0 -19 0 0 0 0 0 -97 0 0 0 0 0
0 0 0 0 0 0 0 0 -59 0 0 -7 0 0 0 49 0
0 0 0 0 0 -66 0 0 0 0 -69 0 0 0 0 0
0 0 0 0 0 0 44 -9 0 0 79 0 12 0 0
0 0 0 0 0 0 0 0 -18 -33 0 0 0 0
0 0 0 0 0 41 0 0 0 0 0 0 0
0 0 0 0 0 0 0 0 0 0 0 0
0 -37 0 0 0 0 43 0 0 0 0
0 -25 0 59 0 -23 0 0 0 0
0 0 0 0 0 0 0 0 -60
0 0 0 0 0 0 0 0
0 0 0 0 0 0 0
0 0 0 0 0 27
0 0 -19 2 0
0 0 0 0
0 0 -44
0 0
0
0 0 0 0 0 0 0 82 -91 0 0 0 0 0 0 0 27 0 -5 45 0 0 -5
0 -75 0 0 71 0 0 0 0 0 0 0 0 0 -75 0 0 0 0 0 0 0
0 0 0 0 -91 0 0 0 0 5 0 0 0 0 0 0 0 0 0 -23 0
0 5 0 -39 0 0 0 44 0 0 0 0 99 -40 0 0 -60 -41 0 0
0 -43 0 -75 0 0 -94 0 0 0 0 0 0 -29 65 0 0 0 0
0 0 0 -13 0 -47 0 0 0 0 -87 0 -75 0 0 0 -82 0
0 0 0 0 0 0 0 0 0 -51 -78 63 0 0 0 0 0
0 0 0 0 -66 49 0 -61 0 0 0 0 -72 0 -94 0
0 28 5 -65 0 0 0 0 0 0 0 0 0 93 93
0 0 0 0 0 0 0 0 -80 42 -90 0 0 61
0 30 0 0 0 0 0 0 0 45 0 36 0
0 0 44 0 0 0 0 0 0 26 0 0
0 0 0 0 0 0 0 0 0 0 0
0 0 0 -4 -88 0 0 -15 0 -34
0 34 0 0 -66 0 0 -25 -90
0 0 -22 0 0 0 56 0
0 80 0 0 0 0 0
0 0 0 0 0 0
0 0 -42 0 0
0 96 0 0
0 -13 -52
0 0
0
0 75 -68 0 0 88 0 0 -98 0 0 0 -12 9 -2 0 0 -92 12 0 0 0
0 0 5 0 0 0 0 0 0 0 -97 0 0 0 0 0 25 68 0 0 0
0 -59 0 91 -7 0 0 0 0 6 0 0 -22 0 0 75 0 0 0 39
0 0 0 74 0 25 0 0 0 -43 0 28 0 0 0 0 0 30 0
0 0 -13 0 100 -46 0 0 0 0 -91 22 0 -95 0 0 0 -97
0 0 0 86 0 12 -5 56 0 -29 0 0 0 0 0 0 90
0 0 -23 0 0 0 -63 -11 43 0 -42 0 0 0 -50 -4
0 0 0 0 91 0 0 0 43 0 0 0 0 0 0
0 0 -5 -37 -73 -16 -17 0 0 -89 0 39 -96 59
0 0 0 74 51 0 0 0 0 0 0 -79 0
0 60 0 0 0 0 0 0 0 0 25 0
0 0 0 0 0 0 0 0 0 23 0
0 -80 -17 0 0 0 0 0 0 0
0 0 0 0 83 0 0 0 69
0 0 0 0 -15 0 0 0
0 0 0 0 28 0 0
0 0 0 0 0 0
0 0 0 0 0
0 90 0 18
0 0 0
0 -51
0
0 30 -65 25 0 0 0 0 0 0 -64 -82 0 0 -19 0 0 0 0 0 0
0 0 1 0 0 0 16 0 0 -3 0 0 49 0 0 0 -93 0 0 0
0 0 0 0 0 0 0 0 0 0 0 14 34 0 0 0 0 0 -5
0 0 -12 0 72 0 0 0 0 0 0 0 64 0 0 0 0 0
0 0 92 0 0 78 0 0 -65 0 0 88 0 -6 39 0 0
0 0 45 0 0 0 0 0 0 0 0 -90 0 0 32 0
0 0 -35 65 0 0 0 0 0 0 0 85 0 34 0
0 0 0 -38 0 -50 -8 -81 0 34 69 0 0 0
0 0 0 0 0 0 0 0 0 0 49 0 0
0 0 0 -77 0 67 0 23 0 0 0 -66
0 0 0 0 42 23 11 49 0 -62 0
0 0 64 0 1 0 0 0 0 0
0 47 -4 0 0 0 0 -29 76
0 25 0 0 82 -92 0 0
0 0 0 0 0 0 -99
0 0 0 56 0 0
0 0 0 0 0
0 0 0 0
0 0 0
0 0
0
0 0 0 0 27 0 0 0 -43 0 0 0 0 0 0 0 0 0 15 0
0 -59 0 0 0 0 0 -79 -83 0 0 0 0 0 0 0 0 0 0
0 0 0 0 -79 0 48 0 0 0 0 0 0 -3 -1 0 0 0
0 0 0 0 0 17 0 0 12 0 -58 0 62 41 0 0 0
0 79 0 0 0 0 0 0 17 0 0 0 36 0 0 0
0 0 0 0 0 0 0 0 -79 0 0 0 -91 0 0
0 0 0 0 0 0 56 0 66 0 0 0 -92 0
0 0 0 0 0 -66 -80 0 0 0 0 0 0
0 43 0 0 0 0 0 0 -91 47 88 0
0 0 0 -23 68 0 0 -51 0 0 0
0 0 0 0 0 56 43 -86 0 0
0 0 -7 0 0 0 0 0 0
0 0 0 0 0 0 -89 0
0 0 0 -66 0 0 0
0 0 0 0 0 -22
0 -88 -50 65 0
0 34 0 0
0 0 0
0 0
0
0 0 -99 0 0 0 0 70 0 33 0 0 0 -100 -7 0 0 0 0
0 0 -64 0 0 0 -74 0 -89 0 0 0 22 0 0 -53 95 0
0 0 0 -10 0 0 0 0 -68 0 0 0 0 0 0 -85 0
0 0 90 0 0 0 0 0 0 0 54 0 0 0 0 0
0 0 0 0 31 0 0 0 72 0 0 0 0 0 -90
0 0 0 0 0 0 0 0 0 0 0 0 0 0
0 0 -89 0 0 0 0 0 0 0 0 0 0
0 0 0 0 0 0 15 0 0 0 0 -4
0 0 0 0 0 0 0 -66 0 0 0
0 0 0 0 41 0 71 0 -26 0
0 0 0 -28 -82 0 0 0 0
0 0 -97 0 0 62 0 0
0 25 0 0 0 -31 0
0 0 0 0 0 0
0 0 0 0 0
0 0 0 -47
0 0 0
0 0
0
0 -61 0 0 -27 0 11 0 20 0 14 44 0 0 19 0 0 61
0 0 0 0 0 0 0 0 0 0 0 0 0 0 0 0 -82
0 0 0 0 -79 91 0 6 0 0 0 0 0 0 86 78
0 0 0 0 0 61 0 -26 -88 0 -7 0 0 0 -14
0 0 0 46 0 0 0 0 -47 62 0 0 0 0
0 0 -95 0 0 0 0 0 0 0 0 0 0
0 -69 -21 0 54 0 0 46 0 0 0 0
0 0 0 0 0 0 0 0 1 0 0
0 0 0 0 0 -86 0 0 0 0
0 0 0 0 0 0 0 -58 0
0 59 0 0 0 0 0 0
0 0 0 0 0 -16 0
0 0 -66 0 -54 0
0 54 0 0 0
0 0 0 0
0 -14 0
0 0
0
0 0 0 0 0 0 -43 0 0 0 0 35 0 0 0 0 0
0 -50 0 0 0 0 0 0 0 0 95 93 0 0 0 0
0 -35 0 0 0 98 4 6 75 0 -100 0 0 0 0
0 0 0 0 0 -24 66 53 0 -98 55 0 0 0
0 0 1 95 19 52 62 39 0 0 0 -13 0
0 -2 0 0 0 0 46 0 0 0 0 0
0 0 0 0 0 0 0 0 0 0 0
0 81 0 0 0 0 0 0 0 0
0 0 0 23 55 0 0 0 0
0 0 23 48 0 0 0 -95
0 0 0 0 28 0 -60
0 0 0 0 0 0
0 0 0 0 18
0 0 0 71
0 0 -16
0 0
0
0 80 0 0 0 0 0 0 0 -75 -74 0 0 0 0 0
0 0 0 0 0 -15 0 0 0 0 -22 0 0 -65 81
0 0 26 -6 0 -92 0 0 9 0 0 65 0 0
0 0 -8 0 0 0 0 0 0 31 0 0 0
0 54 0 5 0 0 23 0 0 0 0 0
0 0 0 0 -57 0 16 0 0 0 7
0 -1 -83 7 68 0 42 -34 -98 0
0 -83 0 -73 0 0 0 0 0
0 -8 0 0 0 -35 0 0
0 0 0 0 0 0 65
0 96 0 -59 0 0
0 0 0 54 -44
0 0 0 16
0 0 0
0 0
0
0 0 0 0 0 0 0 0 -80 -15 0 0 0 0 0
0 0 0 -19 0 -95 25 0 0 0 0 72 42 0
0 0 0 -9 0 0 0 27 93 0 0 0 -20
0 0 -32 0 0 89 0 4 0 0 39 0
0 0 0 -36 0 0 0 0 0 2 0
0 -93 0 0 0 0 0 34 -32 55
0 0 0 0 0 0 -22 91 0
0 0 0 -39 0 -12 0 -4
0 0 0 0 0 88 -98
0 0 0 0 -48 0
0 0 -15 0 -75
0 75 0 12
0 0 0
0 0
0
0 -85 0 17 0 0 0 0 4 0 0 0 0 0
0 0 47 0 0 0 0 0 0 0 0 0 0
0 0 0 0 0 0 0 0 0 0 73 0
0 0 0 0 52 0 0 2 0 0 0
0 0 0 0 0 0 0 0 0 0
0 0 0 0 55 0 0 0 0
0 0 0 -25 0 0 0 0
0 0 17 0 97 0 0
0 0 0 0 0 0
0 0 -47 41 -18
0 0 0 0
0 -40 0
0 0
0
0 0 0 0 0 0 0 0 0 0 0 0 0
0 0 0 0 0 -98 0 0 0 -92 0 0
0 0 14 18 0 0 0 0 0 0 0
0 0 0 0 0 0 0 0 0 46
0 -8 0 0 -65 0 -12 0 0
0 0 0 0 0 -37 -99 0
0 0 0 0 0 0 0
0 0 0 -39 0 0
0 0 0 75 0
0 0 0 0
0 0 0
0 99
0
0 0 0 78 49 0 0 0 0 0 0 0
0 -87 0 0 0 0 0 33 -94 0 0
0 18 0 0 0 0 0 0 26 0
0 0 -77 0 87 0 0 0 0
0 -30 -4 0 0 0 0 -90
0 0 0 0 0 0 0
0 0 0 -60 -64 0
0 0 0 0 0
0 0 0 0
0 0 0
0 0
0
0 0 0 0 45 0 0 28 0 0 44
0 0 0 0 0 0 0 0 32 0
0 0 22 32 0 0 0 47 0
0 0 31 0 0 0 0 40
0 92 92 0 0 0 -1
0 0 0 52 0 0
0 0 0 0 -70
0 0 0 0
0 0 0
0 0
0
0 0 0 0 -5 -48 0 0 27 0
0 0 0 0 0 -62 0 0 3
0 0 0 -66 0 -66 96 0
0 0 0 0 0 -88 47
0 0 21 0 -54 0
0 0 0 0 0
0 0 100 0
0 0 0
0 0
0
0 0 0 0 0 0 0 0 0
0 -84 0 37 0 0 0 0
0 0 0 14 0 0 0
0 0 62 59 0 0
0 -54 25 0 0
0 0 0 0
0 0 0
0 0
0
0 57 0 0 0 -49 0 0
0 -87 0 0 0 0 0
0 0 0 0 88 75
0 0 22 15 38
0 0 0 0
0 0 50
0 0
0
0 15 0 0 0 0 0
0 73 0 0 0 0
0 0 -73 0 0
0 0 0 -26
0 0 0
0 0
0
0 -75 0 24 0 0
0 0 0 0 0
0 60 0 0
0 0 0
0 0
0
0 0 0 -59 0
0 0 0 0
0 0 0
0 0
0
0 0 0 0
0 13 -8
0 0
0
0 0 0
0 0
0
0 34
0
0
153 -181 485 -328 235 5 -617 243 201 -912 21 -1324 -65 -222 -487 288 127 -1217 1253 -168 404 -429 -310 -615 239 282 560 -186 -352 -317
11.826086956521738 -5.300933786078099 38.51470588235294 -27.333333333333332 10.742857142857142 0.2281746031746032 -31.992592592592594 23.075581395348838 17.148809523809526 -76.0 0.546875 -150.2918918918919 -3.6045454545454545 -6.061702127659575 -10.474329324699353 76.23529411764706 6.702777777777778 -88.73958333333334 36.545833333333334 -6.330143540669857 16.149051490514903 -14.4375 -25.11574074074074 -60.401785714285715 11.380952380952381 10.32906976744186 20.0 -8.06 -19.8 -13.334126984126984
